5 5
2 57 1 27 4 59 0 62 3 20
1 3 2 16 4 44 0 93 3 79
1 30 2 40 4 65 3 29 0 30
0 32 1 10 4 91 3 51 2 8
2 51 4 36 1 55 0 35 3 36
-1
0 2 5
0 4 5
0 1 2 3 5
0 2 3 4 5
0 2 3 4 5
-2
92 313
161 264
37 110 168 234
54 141 270 272
137 189 237 251

379 10
15 8 3 23 14
5 10 16 1 22
6 0 20 11 19
18 9 4 13 24
7 17 2 21 12
